
Gurobi 9.5.0 (win64) logging started Wed Jun 29 18:13:21 2022

Set parameter LogFile to value "../results/logs/log_facebook_combined_17_250_2022_06_29_18_13.log"
Gurobi Optimizer version 9.5.0 build v9.5.0rc5 (win64)
Thread count: 6 physical cores, 12 logical processors, using up to 12 threads
Optimize a model with 1003 rows, 8078 columns and 27347 nonzeros
Model fingerprint: 0x8f05abfd
Variable types: 0 continuous, 8078 integer (8078 binary)
Coefficient statistics:
  Matrix range     [1e+00, 2e+01]
  Objective range  [1e+00, 1e+00]
  Bounds range     [1e+00, 1e+00]
  RHS range        [1e+00, 3e+02]
Found heuristic solution: objective 2061.0000000
Presolve removed 33 rows and 6571 columns
Presolve time: 0.06s
Presolved: 970 rows, 1507 columns, 17213 nonzeros
Variable types: 0 continuous, 1507 integer (1423 binary)
Found heuristic solution: objective 2111.0000000

Root relaxation: objective 2.547778e+03, 772 iterations, 0.02 seconds (0.01 work units)

    Nodes    |    Current Node    |     Objective Bounds      |     Work
 Expl Unexpl |  Obj  Depth IntInf | Incumbent    BestBd   Gap | It/Node Time

     0     0 2547.77825    0  108 2111.00000 2547.77825  20.7%     -    0s
H    0     0                    2503.0000000 2547.77825  1.79%     -    0s
H    0     0                    2505.0000000 2547.77825  1.71%     -    0s
H    0     0                    2509.0000000 2547.77825  1.55%     -    0s
H    0     0                    2520.0000000 2547.77825  1.10%     -    0s
     0     0 2542.41633    0  167 2520.00000 2542.41633  0.89%     -    0s
H    0     0                    2528.0000000 2542.41633  0.57%     -    0s
     0     0 2541.01913    0  168 2528.00000 2541.01913  0.51%     -    0s
     0     0 2540.99240    0  160 2528.00000 2540.99240  0.51%     -    0s
H    0     0                    2531.0000000 2537.45297  0.25%     -    0s
     0     0 2537.40536    0  170 2531.00000 2537.40536  0.25%     -    0s
     0     0 2536.67663    0  135 2531.00000 2536.67663  0.22%     -    0s
     0     0 2536.54355    0  113 2531.00000 2536.54355  0.22%     -    0s
     0     0 2536.53933    0  115 2531.00000 2536.53933  0.22%     -    0s
H    0     0                    2532.0000000 2536.53933  0.18%     -    0s
     0     0 2535.34589    0  107 2532.00000 2535.34589  0.13%     -    0s
H    0     0                    2533.0000000 2535.34589  0.09%     -    0s
     0     0 2534.94175    0   73 2533.00000 2534.94175  0.08%     -    0s
     0     0 2534.91463    0   51 2533.00000 2534.91463  0.08%     -    0s
     0     0 2534.91247    0   53 2533.00000 2534.91247  0.08%     -    0s
     0     0 2534.73156    0   61 2533.00000 2534.73156  0.07%     -    0s
     0     0 2534.73156    0   59 2533.00000 2534.73156  0.07%     -    0s
     0     0 2534.73156    0   56 2533.00000 2534.73156  0.07%     -    0s
     0     0 2534.73156    0   58 2533.00000 2534.73156  0.07%     -    0s
     0     0 2534.73156    0   53 2533.00000 2534.73156  0.07%     -    0s
     0     0 2534.73156    0   50 2533.00000 2534.73156  0.07%     -    0s
     0     0 2534.73156    0   50 2533.00000 2534.73156  0.07%     -    0s
     0     0 2534.73156    0   42 2533.00000 2534.73156  0.07%     -    0s
     0     0 2534.61487    0   52 2533.00000 2534.61487  0.06%     -    0s
     0     0 2534.51983    0   46 2533.00000 2534.51983  0.06%     -    0s
     0     0 2534.49252    0   46 2533.00000 2534.49252  0.06%     -    0s
     0     0 2534.47768    0   54 2533.00000 2534.47768  0.06%     -    0s
     0     0 2534.47354    0   47 2533.00000 2534.47354  0.06%     -    0s
     0     0 2534.46408    0   45 2533.00000 2534.46408  0.06%     -    0s
     0     0 2534.46350    0   40 2533.00000 2534.46350  0.06%     -    0s
     0     0     cutoff    0      2533.00000 2533.00000  0.00%     -    0s

Cutting planes:
  Gomory: 27
  Lift-and-project: 4
  Cover: 5
  Implied bound: 9
  MIR: 34
  StrongCG: 3
  GUB cover: 36
  Zero half: 4
  Mod-K: 1
  RLT: 16
  Relax-and-lift: 3

Explored 1 nodes (2953 simplex iterations) in 0.65 seconds (0.34 work units)
Thread count was 12 (of 12 available processors)

Solution count 10: 2533 2533 2532 ... 2505

Optimal solution found (tolerance 0.00e+00)
Best objective 2.533000000000e+03, best bound 2.533000000000e+03, gap 0.0000%
